
Log started (V12.8.0.0) Wed May 22 18:10:46 2019


Problem '/var/folders/qx/_cpfqbfd32g1dts0hj912x4r0000gn/T/5ed3551b257b4ee0b6ef7d6f955ac484-pulp.lp' read.
Read time = 0.00 sec. (0.08 ticks)
Tried aggregator 1 time.
MIP Presolve eliminated 71 rows and 0 columns.
MIP Presolve modified 11 coefficients.
Reduced MIP has 687 rows, 575 columns, and 2640 nonzeros.
Reduced MIP has 285 binaries, 290 generals, 0 SOSs, and 0 indicators.
Presolve time = 0.00 sec. (1.79 ticks)
Found incumbent of value 4173.000000 after 0.01 sec. (5.05 ticks)
Probing fixed 5 vars, tightened 5 bounds.
Probing time = 0.00 sec. (0.89 ticks)
Cover probing fixed 0 vars, tightened 1 bounds.
Tried aggregator 1 time.
MIP Presolve eliminated 15 rows and 10 columns.
Reduced MIP has 672 rows, 565 columns, and 2570 nonzeros.
Reduced MIP has 280 binaries, 285 generals, 0 SOSs, and 0 indicators.
Presolve time = 0.00 sec. (2.42 ticks)
Probing time = 0.00 sec. (0.83 ticks)
Clique table members: 191.
MIP emphasis: balance optimality and feasibility.
MIP search method: dynamic search.
Parallel mode: deterministic, using up to 8 threads.
Root relaxation solution time = 0.00 sec. (1.59 ticks)

        Nodes                                         Cuts/
   Node  Left     Objective  IInf  Best Integer    Best Bound    ItCnt     Gap

*     0+    0                         4173.0000        0.0000           100.00%
*     0+    0                         4069.0000        0.0000           100.00%
*     0+    0                         3965.0000        0.0000           100.00%
      0     0       12.0000    55     3965.0000       12.0000      105   99.70%
      0     0       12.0000    36     3965.0000      Cuts: 20      125   99.70%
      0     0       14.0000    44     3965.0000      Cuts: 40      188   99.65%
      0     0       19.0031    65     3965.0000      Cuts: 34      259   99.52%
      0     0       20.0000    55     3965.0000      Cuts: 31      281   99.50%
      0     0       20.0063    74     3965.0000      Cuts: 15      360   99.50%
      0     0       22.0000    71     3965.0000      Cuts: 49      397   99.45%
      0     0       24.0063    62     3965.0000      Cuts: 35      498   99.39%
      0     0       25.0031    71     3965.0000      Cuts: 37      564   99.37%
      0     0       27.0000    76     3965.0000      Cuts: 29      590   99.32%
      0     0       27.0000    68     3965.0000      Cuts: 31      613   99.32%
      0     0       27.0000    46     3965.0000    MIRcuts: 1      617   99.32%
      0     0       27.0000    44     3965.0000      Cuts: 11      636   99.32%
*     0+    0                          115.0000       27.0000            76.52%
      0     2       27.0000    33      100.0000       27.0000      636   73.00%
Elapsed time = 0.20 sec. (100.44 ticks, tree = 0.01 MB, solutions = 4)
*    51+    7                           99.0000       27.0000            72.73%
   2674  1515       29.0000    37       99.0000       28.2285    29456   71.49%
   3540  2125       27.0000    36       99.0000       29.0000    44519   70.71%
   5055   862       27.0094    71       99.0000       29.0000    59789   70.71%
